&GLOBAL
  PROJECT  MoS2
  PRINT_LEVEL MEDIUM
  RUN_TYPE ENERGY
  &TIMINGS
     THRESHOLD 0.0001
  &END
!  TRACE
&END GLOBAL
&FORCE_EVAL
  METHOD Quickstep
  &DFT
    BASIS_SET_FILE_NAME  BASIS_MOLOPT
    BASIS_SET_FILE_NAME  BASIS_MOLOPT_UZH
    BASIS_SET_FILE_NAME  BASIS_MOLOPT_UCL
    BASIS_SET_FILE_NAME  /scratch/hpc-prf-eprop2d/eprop2d1_Jan/02_MoS2_MoSe2_WS2_WSe2/BASIS_Mo_S
    BASIS_SET_FILE_NAME  /scratch/hpc-prf-eprop2d/eprop2d1_Jan/02_MoS2_MoSe2_WS2_WSe2/BASIS_W_Se
    BASIS_SET_FILE_NAME  /scratch/hpc-prf-eprop2d/eprop2d1_Jan/08_develop_new_GW/12_clone_GW_inputs_outputs/Inputs_outputs_low_scaling_GW_TMDC/BASIS_MoS
    BASIS_SET_FILE_NAME  /scratch/hpc-prf-eprop2d/eprop2d1_Jan/08_develop_new_GW/12_clone_GW_inputs_outputs/Inputs_outputs_low_scaling_GW_TMDC/BASIS_SET_MoS_MOLOPT_robust
    BASIS_SET_FILE_NAME  /scratch/hpc-prf-eprop2d/eprop2d1_Jan/08_develop_new_GW/12_clone_GW_inputs_outputs/Inputs_outputs_low_scaling_GW_TMDC/BASIS_SET_W_Se_V_Nb_Ta_MOLOPT_robust
    SORT_BASIS EXP
    POTENTIAL_FILE_NAME  GTH_POTENTIALS
    CHARGE 0
    &MGRID
      CUTOFF  500
      REL_CUTOFF  100
    &END MGRID
    &QS
      METHOD GPW
      EPS_DEFAULT 1.0E-40
      EPS_PGF_ORB 1.0E-40
    &END QS
    &SCF
      SCF_GUESS RESTART
      EPS_SCF 1.0E-9
      MAX_SCF 100
      &PRINT
        &RESTART ON
        &END
      &END
      ADDED_MOS -1
      &MIXING
          METHOD BROYDEN_MIXING
          ALPHA 0.1
          BETA 1.5
          NBROYDEN 8
      &END
    &END SCF
    &XC
      &XC_FUNCTIONAL LDA
      &END XC_FUNCTIONAL
    &END XC
  &END DFT
  &PROPERTIES
    &BANDSTRUCTURE
      KPOINTS_DOS 2 2 1
      &KPOINTS_BANDSTRUCTURE
        SPECIAL_POINT Gamma 0.0   0.0   0.0
        SPECIAL_POINT M     0.5   0.0   0.0
        SPECIAL_POINT K     0.333 0.333 0.0
        SPECIAL_POINT Gamma 0.0   0.0   0.0
        NPOINTS 10
      &END
      &GW
        NUM_TIME_FREQ_POINTS 10
        MEMORY_PER_PROC               4
      &END
    &END
  &END PROPERTIES
  &SUBSYS
    &CELL
      ABC                 3.15 3.15 15.0
      ALPHA_BETA_GAMMA    90 90 120
        PERIODIC XY
        MULTIPLE_UNIT_CELL 10 10 1
    &END CELL
    &TOPOLOGY
      MULTIPLE_UNIT_CELL 10 10 1
    &END TOPOLOGY
    &KIND Mo
      BASIS_SET ORB    TZVP-MOLOPT-SR-GTH_robust_12
      BASIS_SET RI_AUX def2-SVP-RIFIT-mod-2
      POTENTIAL        GTH-PADE-q14
    &END KIND
    &KIND S
      BASIS_SET ORB    TZVP-MOLOPT-GTH_robust_9
      BASIS_SET RI_AUX def2-SVP-RIFIT-mod-1
      POTENTIAL        GTH-PADE-q6
    &END KIND
    &KIND W
      BASIS_SET ORB    TZVP-MOLOPT-SR-GTH_robust_1
      BASIS_SET RI_AUX def2-SVP-RIFIT-mod-3
      POTENTIAL        GTH-PADE-q14
    &END KIND
    &KIND Se
      BASIS_SET ORB    TZVP-MOLOPT-SR-GTH
      BASIS_SET RI_AUX def2-SVP-RIFIT-mod-3
      POTENTIAL        GTH-PADE-q6
    &END KIND
!    &KIND Mo
!      BASIS_SET ORB    TZVP-MOLOPT-SR-GTH
!      BASIS_SET RI_AUX def2-SVP-RIFIT-mod-2
!      POTENTIAL        GTH-PADE-q14
!    &END KIND
!    &KIND S
!      BASIS_SET ORB    TZVP-MOLOPT-GTH
!      BASIS_SET RI_AUX def2-SVP-RIFIT-mod-1
!      POTENTIAL        GTH-PADE-q6
!    &END KIND
!    &KIND W
!      BASIS_SET ORB    TZVP-MOLOPT-SR-GTH
!      BASIS_SET RI_AUX def2-SVP-RIFIT-mod-3
!      POTENTIAL        GTH-PADE-q14
!    &END KIND
!    &KIND Se
!      BASIS_SET ORB    TZVP-MOLOPT-SR-GTH
!      BASIS_SET RI_AUX def2-SVP-RIFIT-mod-3
!      POTENTIAL        GTH-PADE-q6
!    &END KIND
    &COORD
Mo         0.00000        1.81865        3.07500
S          0.00000        3.63731        1.48830
S          0.00000        3.63731        4.66170
    &END COORD
  &END SUBSYS
&END FORCE_EVAL
